6180
8150
7298
6162
7308
5942
6410
6832
6028
5336
6252
6106
5650
5586
5862
4866
6206
6436
6178
6438
5882
6110
5650
6252
5406
6200
6618
6596
5720
7454
5904
5042
5696
5076
5560
7772
5960
7238
6350
6272
6378
5666
5644
6120
5424
6222
7156
6462
6212
5572
6250
5872
6704
6022
6208
6550
5842
6084
6260
5188
6380
5102
5580
6792
5930
6756
5342
6228
4654
6374
6424
6588
